TCS_Benchmarks/redos_fix/regexlib2_output_distinct_284_283_8_0.smt2
(set-logic QF_S)
(declare-const x String)
(assert (str.in.re x (re.inter (re.+ (re.union (re.range "\u{00}" "\u{2f}") (re.range "\u{3a}" "\u{40}") (re.range "\u{5b}" "\u{5e}") (re.range "\u{60}" "\u{60}") (re.range "\u{7b}" "\u{a9}") (re.range "\u{ab}" "\u{b4}") (re.range "\u{b6}" "\u{b9}") (re.range "\u{bb}" "\u{bf}") (re.range "\u{d7}" "\u{d7}") (re.range "\u{f7}" "\u{f7}")) )  (re.++ (re.+ (re.union (re.range "\u{00}" "\u{2f}") (re.range "\u{3a}" "\u{40}") (re.range "\u{5b}" "\u{5e}") (re.range "\u{60}" "\u{60}") (re.range "\u{7b}" "\u{a9}") (re.range "\u{ab}" "\u{b4}") (re.range "\u{b6}" "\u{b9}") (re.range "\u{bb}" "\u{bf}") (re.range "\u{d7}" "\u{d7}") (re.range "\u{f7}" "\u{f7}")) ) (re.++ (re.+ (re.union (re.range "\u{00}" "\u{08}") (re.range "\u{0e}" "\u{1f}") (re.range "\u{21}" "\u{84}") (re.range "\u{86}" "\u{9f}") (re.range "\u{a1}" "\u{ff}")) ) (re.+ (re.comp  (re.union  (str.to.re "\u{20}") (re.union  (str.to.re "\u{5d}") (re.union  (str.to.re "\u{7d}") (re.union  (str.to_re "\u{0A}") (re.union  (str.to.re "\u{24}") (re.union  (str.to_re "\u{0D}") (re.union  (str.to.re "\u{29}") (re.union  (str.to.re "\u{3a}") (re.union  (str.to.re "\u{3b}") (re.union  (str.to.re "\u{2c}") (re.union  (str.to.re "\u{2e}")  (str.to.re "\u{3f}"))))))))))))) ))) (re.+ (re.comp  (re.union  (str.to.re "\u{20}") (re.union  (str.to.re "\u{5d}") (re.union  (str.to.re "\u{7d}") (re.union  (str.to_re "\u{0A}") (re.union  (str.to.re "\u{24}") (re.union  (str.to_re "\u{0D}") (re.union  (str.to.re "\u{29}") (re.union  (str.to.re "\u{3a}") (re.union  (str.to.re "\u{3b}") (re.union  (str.to.re "\u{2c}") (re.union  (str.to.re "\u{2e}")  (str.to.re "\u{3f}"))))))))))))) ) )))
(check-sat)
(get-model)