TCS_Benchmarks/redos_fix/regexlib2_output_distinct_284_283_8_0.txt
\W+
(\W+)(\S+)([^ \]\}\n$\r):;,.?]+)
[^ \]\}\n$\r):;,.?]+